problems/GracefulGears/GracefulGears-models/compact/O2/lingeling/model-n08-solution000001.solution
language Essence 1.3

letting colour be
        function(0 --> 1, 1 --> 6, 2 --> 5, 3 --> 16, 4 --> 7, 5 --> 13, 6 --> 3, 7 --> 23, 8 --> 8, 9 --> 22, 10 --> 0,
                 11 --> 4, 12 --> 17, 13 --> 9, 14 --> 21, 15 --> 19, 16 --> 24)
letting edgeID be
        function(0 --> 5, 1 --> 1, 2 --> 11, 3 --> 9, 4 --> 6, 5 --> 10, 6 --> 20, 7 --> 15, 8 --> 14, 9 --> 22,
                 10 --> 4, 11 --> 13, 12 --> 8, 13 --> 12, 14 --> 2, 15 --> 18, 16 --> 23, 17 --> 19, 18 --> 17,
                 19 --> 21, 20 --> 16, 21 --> 24, 22 --> 7, 23 --> 3)
